c 0.01079869270324707 (encode time in sec)
p cnf 151 1048
1 2 3 4 0
1 2 -3 5 0
1 -2 3 5 0
1 -2 -3 5 0
-1 2 3 5 0
-1 2 -3 5 0
-1 -2 3 5 0
-1 -2 -3 4 0
6 7 8 9 0
6 7 -8 10 0
6 -7 8 10 0
6 -7 -8 10 0
-6 7 8 10 0
-6 7 -8 10 0
-6 -7 8 10 0
-6 -7 -8 9 0
11 12 13 14 0
11 12 -13 15 0
11 -12 13 15 0
11 -12 -13 15 0
-11 12 13 15 0
-11 12 -13 15 0
-11 -12 13 15 0
-11 -12 -13 14 0
16 17 18 1 2 3 6 7 8 20 0
16 17 18 1 2 3 6 7 -8 20 0
16 17 18 1 2 3 6 -7 8 19 0
16 17 18 1 2 3 6 -7 -8 21 0
16 17 18 1 2 3 -6 7 8 0
16 17 18 1 2 3 -6 7 -8 37 0
16 17 18 1 2 3 -6 -7 8 0
16 17 18 1 2 3 -6 -7 -8 0
16 17 18 1 2 -3 6 7 8 23 0
16 17 18 1 2 -3 6 7 -8 19 0
16 17 18 1 2 -3 6 -7 8 0
16 17 18 1 2 -3 6 -7 -8 38 0
16 17 18 1 2 -3 -6 7 8 0
16 17 18 1 2 -3 -6 7 -8 0
16 17 18 1 2 -3 -6 -7 8 0
16 17 18 1 2 -3 -6 -7 -8 0
16 17 18 1 -2 3 6 7 8 20 0
16 17 18 1 -2 3 6 7 -8 0
16 17 18 1 -2 3 6 -7 8 0
16 17 18 1 -2 3 6 -7 -8 0
16 17 18 1 -2 3 -6 7 8 0
16 17 18 1 -2 3 -6 7 -8 0
16 17 18 1 -2 3 -6 -7 8 0
16 17 18 1 -2 3 -6 -7 -8 0
16 17 18 1 -2 -3 6 7 8 20 0
16 17 18 1 -2 -3 6 7 -8 38 0
16 17 18 1 -2 -3 6 -7 8 0
16 17 18 1 -2 -3 6 -7 -8 0
16 17 18 1 -2 -3 -6 7 8 0
16 17 18 1 -2 -3 -6 7 -8 0
16 17 18 1 -2 -3 -6 -7 8 0
16 17 18 1 -2 -3 -6 -7 -8 0
16 17 18 -1 2 3 6 7 8 24 0
16 17 18 -1 2 3 6 7 -8 39 0
16 17 18 -1 2 3 6 -7 8 0
16 17 18 -1 2 3 6 -7 -8 0
16 17 18 -1 2 3 -6 7 8 0
16 17 18 -1 2 3 -6 7 -8 0
16 17 18 -1 2 3 -6 -7 8 0
16 17 18 -1 2 3 -6 -7 -8 0
16 17 18 -1 2 -3 6 7 8 25 0
16 17 18 -1 2 -3 6 7 -8 0
16 17 18 -1 2 -3 6 -7 8 0
16 17 18 -1 2 -3 6 -7 -8 0
16 17 18 -1 2 -3 -6 7 8 0
16 17 18 -1 2 -3 -6 7 -8 0
16 17 18 -1 2 -3 -6 -7 8 0
16 17 18 -1 2 -3 -6 -7 -8 0
16 17 18 -1 -2 3 6 7 8 37 0
16 17 18 -1 -2 3 6 7 -8 0
16 17 18 -1 -2 3 6 -7 8 0
16 17 18 -1 -2 3 6 -7 -8 0
16 17 18 -1 -2 3 -6 7 8 0
16 17 18 -1 -2 3 -6 7 -8 0
16 17 18 -1 -2 3 -6 -7 8 0
16 17 18 -1 -2 3 -6 -7 -8 0
16 17 18 -1 -2 -3 6 7 8 26 0
16 17 18 -1 -2 -3 6 7 -8 0
16 17 18 -1 -2 -3 6 -7 8 0
16 17 18 -1 -2 -3 6 -7 -8 0
16 17 18 -1 -2 -3 -6 7 8 0
16 17 18 -1 -2 -3 -6 7 -8 0
16 17 18 -1 -2 -3 -6 -7 8 0
16 17 18 -1 -2 -3 -6 -7 -8 0
16 17 -18 1 2 3 6 7 8 0
16 17 -18 1 2 3 6 7 -8 0
16 17 -18 1 2 3 6 -7 8 26 0
16 17 -18 1 2 3 6 -7 -8 21 0
16 17 -18 1 2 3 -6 7 8 20 0
16 17 -18 1 2 3 -6 7 -8 44 0
16 17 -18 1 2 3 -6 -7 8 37 0
16 17 -18 1 2 3 -6 -7 -8 0
16 17 -18 1 2 -3 6 7 8 34 0
16 17 -18 1 2 -3 6 7 -8 26 0
16 17 -18 1 2 -3 6 -7 8 20 0
16 17 -18 1 2 -3 6 -7 -8 32 0
16 17 -18 1 2 -3 -6 7 8 0
16 17 -18 1 2 -3 -6 7 -8 0
16 17 -18 1 2 -3 -6 -7 8 0
16 17 -18 1 2 -3 -6 -7 -8 0
16 17 -18 1 -2 3 6 7 8 0
16 17 -18 1 -2 3 6 7 -8 28 0
16 17 -18 1 -2 3 6 -7 8 0
16 17 -18 1 -2 3 6 -7 -8 27 0
16 17 -18 1 -2 3 -6 7 8 0
16 17 -18 1 -2 3 -6 7 -8 0
16 17 -18 1 -2 3 -6 -7 8 0
16 17 -18 1 -2 3 -6 -7 -8 0
16 17 -18 1 -2 -3 6 7 8 0
16 17 -18 1 -2 -3 6 7 -8 32 0
16 17 -18 1 -2 -3 6 -7 8 38 0
16 17 -18 1 -2 -3 6 -7 -8 0
16 17 -18 1 -2 -3 -6 7 8 0
16 17 -18 1 -2 -3 -6 7 -8 0
16 17 -18 1 -2 -3 -6 -7 8 0
16 17 -18 1 -2 -3 -6 -7 -8 0
16 17 -18 -1 2 3 6 7 8 31 0
16 17 -18 -1 2 3 6 7 -8 0
16 17 -18 -1 2 3 6 -7 8 0
16 17 -18 -1 2 3 6 -7 -8 0
16 17 -18 -1 2 3 -6 7 8 0
16 17 -18 -1 2 3 -6 7 -8 0
16 17 -18 -1 2 3 -6 -7 8 0
16 17 -18 -1 2 3 -6 -7 -8 0
16 17 -18 -1 2 -3 6 7 8 25 0
16 17 -18 -1 2 -3 6 7 -8 46 0
16 17 -18 -1 2 -3 6 -7 8 38 0
16 17 -18 -1 2 -3 6 -7 -8 0
16 17 -18 -1 2 -3 -6 7 8 0
16 17 -18 -1 2 -3 -6 7 -8 0
16 17 -18 -1 2 -3 -6 -7 8 0
16 17 -18 -1 2 -3 -6 -7 -8 0
16 17 -18 -1 -2 3 6 7 8 47 0
16 17 -18 -1 -2 3 6 7 -8 0
16 17 -18 -1 -2 3 6 -7 8 0
16 17 -18 -1 -2 3 6 -7 -8 0
16 17 -18 -1 -2 3 -6 7 8 0
16 17 -18 -1 -2 3 -6 7 -8 0
16 17 -18 -1 -2 3 -6 -7 8 0
16 17 -18 -1 -2 3 -6 -7 -8 0
16 17 -18 -1 -2 -3 6 7 8 0
16 17 -18 -1 -2 -3 6 7 -8 0
16 17 -18 -1 -2 -3 6 -7 8 0
16 17 -18 -1 -2 -3 6 -7 -8 0
16 17 -18 -1 -2 -3 -6 7 8 0
16 17 -18 -1 -2 -3 -6 7 -8 0
16 17 -18 -1 -2 -3 -6 -7 8 0
16 17 -18 -1 -2 -3 -6 -7 -8 0
16 -17 18 1 2 3 6 7 8 0
16 -17 18 1 2 3 6 7 -8 0
16 -17 18 1 2 3 6 -7 8 0
16 -17 18 1 2 3 6 -7 -8 26 0
16 -17 18 1 2 3 -6 7 8 0
16 -17 18 1 2 3 -6 7 -8 44 0
16 -17 18 1 2 3 -6 -7 8 37 0
16 -17 18 1 2 3 -6 -7 -8 0
16 -17 18 1 2 -3 6 7 8 0
16 -17 18 1 2 -3 6 7 -8 0
16 -17 18 1 2 -3 6 -7 8 0
16 -17 18 1 2 -3 6 -7 -8 43 0
16 -17 18 1 2 -3 -6 7 8 24 0
16 -17 18 1 2 -3 -6 7 -8 39 0
16 -17 18 1 2 -3 -6 -7 8 0
16 -17 18 1 2 -3 -6 -7 -8 0
16 -17 18 1 -2 3 6 7 8 0
16 -17 18 1 -2 3 6 7 -8 45 0
16 -17 18 1 -2 3 6 -7 8 35 0
16 -17 18 1 -2 3 6 -7 -8 24 0
16 -17 18 1 -2 3 -6 7 8 21 0
16 -17 18 1 -2 3 -6 7 -8 0
16 -17 18 1 -2 3 -6 -7 8 0
16 -17 18 1 -2 3 -6 -7 -8 0
16 -17 18 1 -2 -3 6 7 8 0
16 -17 18 1 -2 -3 6 7 -8 43 0
16 -17 18 1 -2 -3 6 -7 8 32 0
16 -17 18 1 -2 -3 6 -7 -8 35 0
16 -17 18 1 -2 -3 -6 7 8 0
16 -17 18 1 -2 -3 -6 7 -8 0
16 -17 18 1 -2 -3 -6 -7 8 0
16 -17 18 1 -2 -3 -6 -7 -8 0
16 -17 18 -1 2 3 6 7 8 0
16 -17 18 -1 2 3 6 7 -8 39 0
16 -17 18 -1 2 3 6 -7 8 21 0
16 -17 18 -1 2 3 6 -7 -8 20 0
16 -17 18 -1 2 3 -6 7 8 0
16 -17 18 -1 2 3 -6 7 -8 0
16 -17 18 -1 2 3 -6 -7 8 0
16 -17 18 -1 2 3 -6 -7 -8 0
16 -17 18 -1 2 -3 6 7 8 39 0
16 -17 18 -1 2 -3 6 7 -8 34 0
16 -17 18 -1 2 -3 6 -7 8 43 0
16 -17 18 -1 2 -3 6 -7 -8 0
16 -17 18 -1 2 -3 -6 7 8 0
16 -17 18 -1 2 -3 -6 7 -8 0
16 -17 18 -1 2 -3 -6 -7 8 0
16 -17 18 -1 2 -3 -6 -7 -8 0
16 -17 18 -1 -2 3 6 7 8 37 0
16 -17 18 -1 -2 3 6 7 -8 0
16 -17 18 -1 -2 3 6 -7 8 0
16 -17 18 -1 -2 3 6 -7 -8 0
16 -17 18 -1 -2 3 -6 7 8 0
16 -17 18 -1 -2 3 -6 7 -8 0
16 -17 18 -1 -2 3 -6 -7 8 0
16 -17 18 -1 -2 3 -6 -7 -8 0
16 -17 18 -1 -2 -3 6 7 8 26 0
16 -17 18 -1 -2 -3 6 7 -8 39 0
16 -17 18 -1 -2 -3 6 -7 8 0
16 -17 18 -1 -2 -3 6 -7 -8 0
16 -17 18 -1 -2 -3 -6 7 8 0
16 -17 18 -1 -2 -3 -6 7 -8 0
16 -17 18 -1 -2 -3 -6 -7 8 0
16 -17 18 -1 -2 -3 -6 -7 -8 0
16 -17 -18 1 2 3 6 7 8 0
16 -17 -18 1 2 3 6 7 -8 0
16 -17 -18 1 2 3 6 -7 8 0
16 -17 -18 1 2 3 6 -7 -8 0
16 -17 -18 1 2 3 -6 7 8 0
16 -17 -18 1 2 3 -6 7 -8 37 0
16 -17 -18 1 2 3 -6 -7 8 37 0
16 -17 -18 1 2 3 -6 -7 -8 0
16 -17 -18 1 2 -3 6 7 8 0
16 -17 -18 1 2 -3 6 7 -8 0
16 -17 -18 1 2 -3 6 -7 8 0
16 -17 -18 1 2 -3 6 -7 -8 0
16 -17 -18 1 2 -3 -6 7 8 24 0
16 -17 -18 1 2 -3 -6 7 -8 33 0
16 -17 -18 1 2 -3 -6 -7 8 41 0
16 -17 -18 1 2 -3 -6 -7 -8 0
16 -17 -18 1 -2 3 6 7 8 0
16 -17 -18 1 -2 3 6 7 -8 0
16 -17 -18 1 -2 3 6 -7 8 44 0
16 -17 -18 1 -2 3 6 -7 -8 41 0
16 -17 -18 1 -2 3 -6 7 8 29 0
16 -17 -18 1 -2 3 -6 7 -8 39 0
16 -17 -18 1 -2 3 -6 -7 8 44 0
16 -17 -18 1 -2 3 -6 -7 -8 0
16 -17 -18 1 -2 -3 6 7 8 0
16 -17 -18 1 -2 -3 6 7 -8 0
16 -17 -18 1 -2 -3 6 -7 8 43 0
16 -17 -18 1 -2 -3 6 -7 -8 44 0
16 -17 -18 1 -2 -3 -6 7 8 26 0
16 -17 -18 1 -2 -3 -6 7 -8 0
16 -17 -18 1 -2 -3 -6 -7 8 0
16 -17 -18 1 -2 -3 -6 -7 -8 0
16 -17 -18 -1 2 3 6 7 8 0
16 -17 -18 -1 2 3 6 7 -8 25 0
16 -17 -18 -1 2 3 6 -7 8 21 0
16 -17 -18 -1 2 3 6 -7 -8 0
16 -17 -18 -1 2 3 -6 7 8 0
16 -17 -18 -1 2 3 -6 7 -8 0
16 -17 -18 -1 2 3 -6 -7 8 0
16 -17 -18 -1 2 3 -6 -7 -8 0
16 -17 -18 -1 2 -3 6 7 8 0
16 -17 -18 -1 2 -3 6 7 -8 40 0
16 -17 -18 -1 2 -3 6 -7 8 43 0
16 -17 -18 -1 2 -3 6 -7 -8 25 0
16 -17 -18 -1 2 -3 -6 7 8 0
16 -17 -18 -1 2 -3 -6 7 -8 0
16 -17 -18 -1 2 -3 -6 -7 8 0
16 -17 -18 -1 2 -3 -6 -7 -8 0
16 -17 -18 -1 -2 3 6 7 8 37 0
16 -17 -18 -1 -2 3 6 7 -8 35 0
16 -17 -18 -1 -2 3 6 -7 8 37 0
16 -17 -18 -1 -2 3 6 -7 -8 0
16 -17 -18 -1 -2 3 -6 7 8 0
16 -17 -18 -1 -2 3 -6 7 -8 0
16 -17 -18 -1 -2 3 -6 -7 8 0
16 -17 -18 -1 -2 3 -6 -7 -8 0
16 -17 -18 -1 -2 -3 6 7 8 26 0
16 -17 -18 -1 -2 -3 6 7 -8 39 0
16 -17 -18 -1 -2 -3 6 -7 8 36 0
16 -17 -18 -1 -2 -3 6 -7 -8 0
16 -17 -18 -1 -2 -3 -6 7 8 0
16 -17 -18 -1 -2 -3 -6 7 -8 0
16 -17 -18 -1 -2 -3 -6 -7 8 0
16 -17 -18 -1 -2 -3 -6 -7 -8 0
-16 17 18 1 2 3 6 7 8 0
-16 17 18 1 2 3 6 7 -8 0
-16 17 18 1 2 3 6 -7 8 0
-16 17 18 1 2 3 6 -7 -8 0
-16 17 18 1 2 3 -6 7 8 0
-16 17 18 1 2 3 -6 7 -8 0
-16 17 18 1 2 3 -6 -7 8 44 0
-16 17 18 1 2 3 -6 -7 -8 30 0
-16 17 18 1 2 -3 6 7 8 0
-16 17 18 1 2 -3 6 7 -8 0
-16 17 18 1 2 -3 6 -7 8 0
-16 17 18 1 2 -3 6 -7 -8 0
-16 17 18 1 2 -3 -6 7 8 27 0
-16 17 18 1 2 -3 -6 7 -8 39 0
-16 17 18 1 2 -3 -6 -7 8 31 0
-16 17 18 1 2 -3 -6 -7 -8 0
-16 17 18 1 -2 3 6 7 8 0
-16 17 18 1 -2 3 6 7 -8 0
-16 17 18 1 -2 3 6 -7 8 0
-16 17 18 1 -2 3 6 -7 -8 27 0
-16 17 18 1 -2 3 -6 7 8 30 0
-16 17 18 1 -2 3 -6 7 -8 42 0
-16 17 18 1 -2 3 -6 -7 8 37 0
-16 17 18 1 -2 3 -6 -7 -8 0
-16 17 18 1 -2 -3 6 7 8 0
-16 17 18 1 -2 -3 6 7 -8 0
-16 17 18 1 -2 -3 6 -7 8 0
-16 17 18 1 -2 -3 6 -7 -8 0
-16 17 18 1 -2 -3 -6 7 8 19 0
-16 17 18 1 -2 -3 -6 7 -8 25 0
-16 17 18 1 -2 -3 -6 -7 8 0
-16 17 18 1 -2 -3 -6 -7 -8 0
-16 17 18 -1 2 3 6 7 8 0
-16 17 18 -1 2 3 6 7 -8 39 0
-16 17 18 -1 2 3 6 -7 8 26 0
-16 17 18 -1 2 3 6 -7 -8 0
-16 17 18 -1 2 3 -6 7 8 0
-16 17 18 -1 2 3 -6 7 -8 33 0
-16 17 18 -1 2 3 -6 -7 8 0
-16 17 18 -1 2 3 -6 -7 -8 0
-16 17 18 -1 2 -3 6 7 8 0
-16 17 18 -1 2 -3 6 7 -8 40 0
-16 17 18 -1 2 -3 6 -7 8 38 0
-16 17 18 -1 2 -3 6 -7 -8 25 0
-16 17 18 -1 2 -3 -6 7 8 39 0
-16 17 18 -1 2 -3 -6 7 -8 29 0
-16 17 18 -1 2 -3 -6 -7 8 0
-16 17 18 -1 2 -3 -6 -7 -8 0
-16 17 18 -1 -2 3 6 7 8 0
-16 17 18 -1 -2 3 6 7 -8 44 0
-16 17 18 -1 -2 3 6 -7 8 35 0
-16 17 18 -1 -2 3 6 -7 -8 25 0
-16 17 18 -1 -2 3 -6 7 8 0
-16 17 18 -1 -2 3 -6 7 -8 36 0
-16 17 18 -1 -2 3 -6 -7 8 0
-16 17 18 -1 -2 3 -6 -7 -8 0
-16 17 18 -1 -2 -3 6 7 8 0
-16 17 18 -1 -2 -3 6 7 -8 0
-16 17 18 -1 -2 -3 6 -7 8 0
-16 17 18 -1 -2 -3 6 -7 -8 0
-16 17 18 -1 -2 -3 -6 7 8 0
-16 17 18 -1 -2 -3 -6 7 -8 0
-16 17 18 -1 -2 -3 -6 -7 8 0
-16 17 18 -1 -2 -3 -6 -7 -8 0
-16 17 -18 1 2 3 6 7 8 0
-16 17 -18 1 2 3 6 7 -8 0
-16 17 -18 1 2 3 6 -7 8 0
-16 17 -18 1 2 3 6 -7 -8 0
-16 17 -18 1 2 3 -6 7 8 0
-16 17 -18 1 2 3 -6 7 -8 0
-16 17 -18 1 2 3 -6 -7 8 37 0
-16 17 -18 1 2 3 -6 -7 -8 26 0
-16 17 -18 1 2 -3 6 7 8 0
-16 17 -18 1 2 -3 6 7 -8 0
-16 17 -18 1 2 -3 6 -7 8 0
-16 17 -18 1 2 -3 6 -7 -8 0
-16 17 -18 1 2 -3 -6 7 8 0
-16 17 -18 1 2 -3 -6 7 -8 0
-16 17 -18 1 2 -3 -6 -7 8 0
-16 17 -18 1 2 -3 -6 -7 -8 29 0
-16 17 -18 1 -2 3 6 7 8 0
-16 17 -18 1 -2 3 6 7 -8 0
-16 17 -18 1 -2 3 6 -7 8 0
-16 17 -18 1 -2 3 6 -7 -8 0
-16 17 -18 1 -2 3 -6 7 8 0
-16 17 -18 1 -2 3 -6 7 -8 0
-16 17 -18 1 -2 3 -6 -7 8 44 0
-16 17 -18 1 -2 3 -6 -7 -8 26 0
-16 17 -18 1 -2 -3 6 7 8 0
-16 17 -18 1 -2 -3 6 7 -8 0
-16 17 -18 1 -2 -3 6 -7 8 0
-16 17 -18 1 -2 -3 6 -7 -8 0
-16 17 -18 1 -2 -3 -6 7 8 0
-16 17 -18 1 -2 -3 -6 7 -8 25 0
-16 17 -18 1 -2 -3 -6 -7 8 29 0
-16 17 -18 1 -2 -3 -6 -7 -8 27 0
-16 17 -18 -1 2 3 6 7 8 0
-16 17 -18 -1 2 3 6 7 -8 0
-16 17 -18 -1 2 3 6 -7 8 0
-16 17 -18 -1 2 3 6 -7 -8 0
-16 17 -18 -1 2 3 -6 7 8 20 0
-16 17 -18 -1 2 3 -6 7 -8 0
-16 17 -18 -1 2 3 -6 -7 8 37 0
-16 17 -18 -1 2 3 -6 -7 -8 0
-16 17 -18 -1 2 -3 6 7 8 0
-16 17 -18 -1 2 -3 6 7 -8 0
-16 17 -18 -1 2 -3 6 -7 8 38 0
-16 17 -18 -1 2 -3 6 -7 -8 39 0
-16 17 -18 -1 2 -3 -6 7 8 33 0
-16 17 -18 -1 2 -3 -6 7 -8 29 0
-16 17 -18 -1 2 -3 -6 -7 8 44 0
-16 17 -18 -1 2 -3 -6 -7 -8 0
-16 17 -18 -1 -2 3 6 7 8 0
-16 17 -18 -1 -2 3 6 7 -8 0
-16 17 -18 -1 -2 3 6 -7 8 0
-16 17 -18 -1 -2 3 6 -7 -8 33 0
-16 17 -18 -1 -2 3 -6 7 8 29 0
-16 17 -18 -1 -2 3 -6 7 -8 0
-16 17 -18 -1 -2 3 -6 -7 8 0
-16 17 -18 -1 -2 3 -6 -7 -8 0
-16 17 -18 -1 -2 -3 6 7 8 0
-16 17 -18 -1 -2 -3 6 7 -8 33 0
-16 17 -18 -1 -2 -3 6 -7 8 29 0
-16 17 -18 -1 -2 -3 6 -7 -8 33 0
-16 17 -18 -1 -2 -3 -6 7 8 44 0
-16 17 -18 -1 -2 -3 -6 7 -8 26 0
-16 17 -18 -1 -2 -3 -6 -7 8 0
-16 17 -18 -1 -2 -3 -6 -7 -8 0
-16 -17 18 1 2 3 6 7 8 0
-16 -17 18 1 2 3 6 7 -8 0
-16 -17 18 1 2 3 6 -7 8 0
-16 -17 18 1 2 3 6 -7 -8 0
-16 -17 18 1 2 3 -6 7 8 0
-16 -17 18 1 2 3 -6 7 -8 0
-16 -17 18 1 2 3 -6 -7 8 0
-16 -17 18 1 2 3 -6 -7 -8 29 0
-16 -17 18 1 2 -3 6 7 8 0
-16 -17 18 1 2 -3 6 7 -8 0
-16 -17 18 1 2 -3 6 -7 8 0
-16 -17 18 1 2 -3 6 -7 -8 0
-16 -17 18 1 2 -3 -6 7 8 0
-16 -17 18 1 2 -3 -6 7 -8 0
-16 -17 18 1 2 -3 -6 -7 8 27 0
-16 -17 18 1 2 -3 -6 -7 -8 29 0
-16 -17 18 1 -2 3 6 7 8 0
-16 -17 18 1 -2 3 6 7 -8 0
-16 -17 18 1 -2 3 6 -7 8 0
-16 -17 18 1 -2 3 6 -7 -8 0
-16 -17 18 1 -2 3 -6 7 8 0
-16 -17 18 1 -2 3 -6 7 -8 0
-16 -17 18 1 -2 3 -6 -7 8 37 0
-16 -17 18 1 -2 3 -6 -7 -8 29 0
-16 -17 18 1 -2 -3 6 7 8 0
-16 -17 18 1 -2 -3 6 7 -8 0
-16 -17 18 1 -2 -3 6 -7 8 0
-16 -17 18 1 -2 -3 6 -7 -8 0
-16 -17 18 1 -2 -3 -6 7 8 0
-16 -17 18 1 -2 -3 -6 7 -8 39 0
-16 -17 18 1 -2 -3 -6 -7 8 26 0
-16 -17 18 1 -2 -3 -6 -7 -8 41 0
-16 -17 18 -1 2 3 6 7 8 0
-16 -17 18 -1 2 3 6 7 -8 0
-16 -17 18 -1 2 3 6 -7 8 0
-16 -17 18 -1 2 3 6 -7 -8 0
-16 -17 18 -1 2 3 -6 7 8 0
-16 -17 18 -1 2 3 -6 7 -8 25 0
-16 -17 18 -1 2 3 -6 -7 8 35 0
-16 -17 18 -1 2 3 -6 -7 -8 39 0
-16 -17 18 -1 2 -3 6 7 8 0
-16 -17 18 -1 2 -3 6 7 -8 0
-16 -17 18 -1 2 -3 6 -7 8 0
-16 -17 18 -1 2 -3 6 -7 -8 0
-16 -17 18 -1 2 -3 -6 7 8 39 0
-16 -17 18 -1 2 -3 -6 7 -8 0
-16 -17 18 -1 2 -3 -6 -7 8 35 0
-16 -17 18 -1 2 -3 -6 -7 -8 45 0
-16 -17 18 -1 -2 3 6 7 8 0
-16 -17 18 -1 -2 3 6 7 -8 0
-16 -17 18 -1 -2 3 6 -7 8 37 0
-16 -17 18 -1 -2 3 6 -7 -8 0
-16 -17 18 -1 -2 3 -6 7 8 29 0
-16 -17 18 -1 -2 3 -6 7 -8 29 0
-16 -17 18 -1 -2 3 -6 -7 8 33 0
-16 -17 18 -1 -2 3 -6 -7 -8 0
-16 -17 18 -1 -2 -3 6 7 8 26 0
-16 -17 18 -1 -2 -3 6 7 -8 0
-16 -17 18 -1 -2 -3 6 -7 8 0
-16 -17 18 -1 -2 -3 6 -7 -8 39 0
-16 -17 18 -1 -2 -3 -6 7 8 47 0
-16 -17 18 -1 -2 -3 -6 7 -8 26 0
-16 -17 18 -1 -2 -3 -6 -7 8 39 0
-16 -17 18 -1 -2 -3 -6 -7 -8 0
-16 -17 -18 1 2 3 6 7 8 0
-16 -17 -18 1 2 3 6 7 -8 0
-16 -17 -18 1 2 3 6 -7 8 0
-16 -17 -18 1 2 3 6 -7 -8 0
-16 -17 -18 1 2 3 -6 7 8 0
-16 -17 -18 1 2 3 -6 7 -8 0
-16 -17 -18 1 2 3 -6 -7 8 0
-16 -17 -18 1 2 3 -6 -7 -8 30 0
-16 -17 -18 1 2 -3 6 7 8 0
-16 -17 -18 1 2 -3 6 7 -8 0
-16 -17 -18 1 2 -3 6 -7 8 0
-16 -17 -18 1 2 -3 6 -7 -8 0
-16 -17 -18 1 2 -3 -6 7 8 0
-16 -17 -18 1 2 -3 -6 7 -8 0
-16 -17 -18 1 2 -3 -6 -7 8 0
-16 -17 -18 1 2 -3 -6 -7 -8 0
-16 -17 -18 1 -2 3 6 7 8 0
-16 -17 -18 1 -2 3 6 7 -8 0
-16 -17 -18 1 -2 3 6 -7 8 0
-16 -17 -18 1 -2 3 6 -7 -8 0
-16 -17 -18 1 -2 3 -6 7 8 0
-16 -17 -18 1 -2 3 -6 7 -8 0
-16 -17 -18 1 -2 3 -6 -7 8 0
-16 -17 -18 1 -2 3 -6 -7 -8 26 0
-16 -17 -18 1 -2 -3 6 7 8 0
-16 -17 -18 1 -2 -3 6 7 -8 0
-16 -17 -18 1 -2 -3 6 -7 8 0
-16 -17 -18 1 -2 -3 6 -7 -8 0
-16 -17 -18 1 -2 -3 -6 7 8 0
-16 -17 -18 1 -2 -3 -6 7 -8 0
-16 -17 -18 1 -2 -3 -6 -7 8 26 0
-16 -17 -18 1 -2 -3 -6 -7 -8 31 0
-16 -17 -18 -1 2 3 6 7 8 0
-16 -17 -18 -1 2 3 6 7 -8 0
-16 -17 -18 -1 2 3 6 -7 8 0
-16 -17 -18 -1 2 3 6 -7 -8 0
-16 -17 -18 -1 2 3 -6 7 8 0
-16 -17 -18 -1 2 3 -6 7 -8 0
-16 -17 -18 -1 2 3 -6 -7 8 37 0
-16 -17 -18 -1 2 3 -6 -7 -8 42 0
-16 -17 -18 -1 2 -3 6 7 8 0
-16 -17 -18 -1 2 -3 6 7 -8 0
-16 -17 -18 -1 2 -3 6 -7 8 0
-16 -17 -18 -1 2 -3 6 -7 -8 0
-16 -17 -18 -1 2 -3 -6 7 8 0
-16 -17 -18 -1 2 -3 -6 7 -8 0
-16 -17 -18 -1 2 -3 -6 -7 8 0
-16 -17 -18 -1 2 -3 -6 -7 -8 28 0
-16 -17 -18 -1 -2 3 6 7 8 0
-16 -17 -18 -1 -2 3 6 7 -8 0
-16 -17 -18 -1 -2 3 6 -7 8 0
-16 -17 -18 -1 -2 3 6 -7 -8 0
-16 -17 -18 -1 -2 3 -6 7 8 0
-16 -17 -18 -1 -2 3 -6 7 -8 45 0
-16 -17 -18 -1 -2 3 -6 -7 8 25 0
-16 -17 -18 -1 -2 3 -6 -7 -8 20 0
-16 -17 -18 -1 -2 -3 6 7 8 0
-16 -17 -18 -1 -2 -3 6 7 -8 0
-16 -17 -18 -1 -2 -3 6 -7 8 45 0
-16 -17 -18 -1 -2 -3 6 -7 -8 39 0
-16 -17 -18 -1 -2 -3 -6 7 8 37 0
-16 -17 -18 -1 -2 -3 -6 7 -8 29 0
-16 -17 -18 -1 -2 -3 -6 -7 8 42 0
-16 -17 -18 -1 -2 -3 -6 -7 -8 20 0
48 49 50 11 12 13 16 17 18 51 0
48 49 50 11 12 13 16 17 -18 107 0
48 49 50 11 12 13 16 -17 18 52 0
48 49 50 11 12 13 16 -17 -18 127 0
48 49 50 11 12 13 -16 17 18 103 0
48 49 50 11 12 13 -16 17 -18 93 0
48 49 50 11 12 13 -16 -17 18 145 0
48 49 50 11 12 13 -16 -17 -18 81 0
48 49 50 11 12 -13 16 17 18 108 0
48 49 50 11 12 -13 16 17 -18 109 0
48 49 50 11 12 -13 16 -17 18 70 0
48 49 50 11 12 -13 16 -17 -18 132 0
48 49 50 11 12 -13 -16 17 18 120 0
48 49 50 11 12 -13 -16 17 -18 145 0
48 49 50 11 12 -13 -16 -17 18 82 0
48 49 50 11 12 -13 -16 -17 -18 69 0
48 49 50 11 -12 13 16 17 18 53 0
48 49 50 11 -12 13 16 17 -18 101 0
48 49 50 11 -12 13 16 -17 18 127 0
48 49 50 11 -12 13 16 -17 -18 78 0
48 49 50 11 -12 13 -16 17 18 77 0
48 49 50 11 -12 13 -16 17 -18 128 0
48 49 50 11 -12 13 -16 -17 18 64 0
48 49 50 11 -12 13 -16 -17 -18 141 0
48 49 50 11 -12 -13 16 17 18 54 0
48 49 50 11 -12 -13 16 17 -18 121 0
48 49 50 11 -12 -13 16 -17 18 80 0
48 49 50 11 -12 -13 16 -17 -18 128 0
48 49 50 11 -12 -13 -16 17 18 96 0
48 49 50 11 -12 -13 -16 17 -18 120 0
48 49 50 11 -12 -13 -16 -17 18 102 0
48 49 50 11 -12 -13 -16 -17 -18 69 0
48 49 50 -11 12 13 16 17 18 110 0
48 49 50 -11 12 13 16 17 -18 65 0
48 49 50 -11 12 13 16 -17 18 78 0
48 49 50 -11 12 13 16 -17 -18 80 0
48 49 50 -11 12 13 -16 17 18 118 0
48 49 50 -11 12 13 -16 17 -18 132 0
48 49 50 -11 12 13 -16 -17 18 122 0
48 49 50 -11 12 13 -16 -17 -18 141 0
48 49 50 -11 12 -13 16 17 18 135 0
48 49 50 -11 12 -13 16 17 -18 71 0
48 49 50 -11 12 -13 16 -17 18 128 0
48 49 50 -11 12 -13 16 -17 -18 70 0
48 49 50 -11 12 -13 -16 17 18 96 0
48 49 50 -11 12 -13 -16 17 -18 120 0
48 49 50 -11 12 -13 -16 -17 18 132 0
48 49 50 -11 12 -13 -16 -17 -18 141 0
48 49 50 -11 -12 13 16 17 18 56 0
48 49 50 -11 -12 13 16 17 -18 146 0
48 49 50 -11 -12 13 16 -17 18 133 0
48 49 50 -11 -12 13 16 -17 -18 142 0
48 49 50 -11 -12 13 -16 17 18 70 0
48 49 50 -11 -12 13 -16 17 -18 132 0
48 49 50 -11 -12 13 -16 -17 18 79 0
48 49 50 -11 -12 13 -16 -17 -18 98 0
48 49 50 -11 -12 -13 16 17 18 85 0
48 49 50 -11 -12 -13 16 17 -18 118 0
48 49 50 -11 -12 -13 16 -17 18 134 0
48 49 50 -11 -12 -13 16 -17 -18 97 0
48 49 50 -11 -12 -13 -16 17 18 128 0
48 49 50 -11 -12 -13 -16 17 -18 119 0
48 49 50 -11 -12 -13 -16 -17 18 79 0
48 49 50 -11 -12 -13 -16 -17 -18 102 0
48 49 -50 11 12 13 16 17 18 55 0
48 49 -50 11 12 13 16 17 -18 80 0
48 49 -50 11 12 13 16 -17 18 111 0
48 49 -50 11 12 13 16 -17 -18 61 0
48 49 -50 11 12 13 -16 17 18 83 0
48 49 -50 11 12 13 -16 17 -18 93 0
48 49 -50 11 12 13 -16 -17 18 145 0
48 49 -50 11 12 13 -16 -17 -18 81 0
48 49 -50 11 12 -13 16 17 18 99 0
48 49 -50 11 12 -13 16 17 -18 84 0
48 49 -50 11 12 -13 16 -17 18 147 0
48 49 -50 11 12 -13 16 -17 -18 132 0
48 49 -50 11 12 -13 -16 17 18 120 0
48 49 -50 11 12 -13 -16 17 -18 145 0
48 49 -50 11 12 -13 -16 -17 18 82 0
48 49 -50 11 12 -13 -16 -17 -18 69 0
48 49 -50 11 -12 13 16 17 18 121 0
48 49 -50 11 -12 13 16 17 -18 54 0
48 49 -50 11 -12 13 16 -17 18 61 0
48 49 -50 11 -12 13 16 -17 -18 78 0
48 49 -50 11 -12 13 -16 17 18 77 0
48 49 -50 11 -12 13 -16 17 -18 128 0
48 49 -50 11 -12 13 -16 -17 18 64 0
48 49 -50 11 -12 13 -16 -17 -18 141 0
48 49 -50 11 -12 -13 16 17 18 101 0
48 49 -50 11 -12 -13 16 17 -18 53 0
48 49 -50 11 -12 -13 16 -17 18 80 0
48 49 -50 11 -12 -13 16 -17 -18 128 0
48 49 -50 11 -12 -13 -16 17 18 96 0
48 49 -50 11 -12 -13 -16 17 -18 120 0
48 49 -50 11 -12 -13 -16 -17 18 102 0
48 49 -50 11 -12 -13 -16 -17 -18 69 0
48 49 -50 -11 12 13 16 17 18 123 0
48 49 -50 -11 12 13 16 17 -18 57 0
48 49 -50 -11 12 13 16 -17 18 112 0
48 49 -50 -11 12 13 16 -17 -18 80 0
48 49 -50 -11 12 13 -16 17 18 118 0
48 49 -50 -11 12 13 -16 17 -18 132 0
48 49 -50 -11 12 13 -16 -17 18 122 0
48 49 -50 -11 12 13 -16 -17 -18 141 0
48 49 -50 -11 12 -13 16 17 18 135 0
48 49 -50 -11 12 -13 16 17 -18 71 0
48 49 -50 -11 12 -13 16 -17 18 128 0
48 49 -50 -11 12 -13 16 -17 -18 70 0
48 49 -50 -11 12 -13 -16 17 18 96 0
48 49 -50 -11 12 -13 -16 17 -18 120 0
48 49 -50 -11 12 -13 -16 -17 18 132 0
48 49 -50 -11 12 -13 -16 -17 -18 141 0
48 49 -50 -11 -12 13 16 17 18 56 0
48 49 -50 -11 -12 13 16 17 -18 52 0
48 49 -50 -11 -12 13 16 -17 18 133 0
48 49 -50 -11 -12 13 16 -17 -18 142 0
48 49 -50 -11 -12 13 -16 17 18 70 0
48 49 -50 -11 -12 13 -16 17 -18 132 0
48 49 -50 -11 -12 13 -16 -17 18 79 0
48 49 -50 -11 -12 13 -16 -17 -18 98 0
48 49 -50 -11 -12 -13 16 17 18 87 0
48 49 -50 -11 -12 -13 16 17 -18 118 0
48 49 -50 -11 -12 -13 16 -17 18 134 0
48 49 -50 -11 -12 -13 16 -17 -18 97 0
48 49 -50 -11 -12 -13 -16 17 18 128 0
48 49 -50 -11 -12 -13 -16 17 -18 119 0
48 49 -50 -11 -12 -13 -16 -17 18 79 0
48 49 -50 -11 -12 -13 -16 -17 -18 102 0
48 -49 50 11 12 13 16 17 18 55 0
48 -49 50 11 12 13 16 17 -18 80 0
48 -49 50 11 12 13 16 -17 18 52 0
48 -49 50 11 12 13 16 -17 -18 86 0
48 -49 50 11 12 13 -16 17 18 83 0
48 -49 50 11 12 13 -16 17 -18 93 0
48 -49 50 11 12 13 -16 -17 18 145 0
48 -49 50 11 12 13 -16 -17 -18 81 0
48 -49 50 11 12 -13 16 17 18 99 0
48 -49 50 11 12 -13 16 17 -18 133 0
48 -49 50 11 12 -13 16 -17 18 58 0
48 -49 50 11 12 -13 16 -17 -18 59 0
48 -49 50 11 12 -13 -16 17 18 120 0
48 -49 50 11 12 -13 -16 17 -18 145 0
48 -49 50 11 12 -13 -16 -17 18 82 0
48 -49 50 11 12 -13 -16 -17 -18 69 0
48 -49 50 11 -12 13 16 17 18 121 0
48 -49 50 11 -12 13 16 17 -18 101 0
48 -49 50 11 -12 13 16 -17 18 86 0
48 -49 50 11 -12 13 16 -17 -18 113 0
48 -49 50 11 -12 13 -16 17 18 77 0
48 -49 50 11 -12 13 -16 17 -18 128 0
48 -49 50 11 -12 13 -16 -17 18 64 0
48 -49 50 11 -12 13 -16 -17 -18 141 0
48 -49 50 11 -12 -13 16 17 18 101 0
48 -49 50 11 -12 -13 16 17 -18 121 0
48 -49 50 11 -12 -13 16 -17 18 149 0
48 -49 50 11 -12 -13 16 -17 -18 128 0
48 -49 50 11 -12 -13 -16 17 18 96 0
48 -49 50 11 -12 -13 -16 17 -18 120 0
48 -49 50 11 -12 -13 -16 -17 18 102 0
48 -49 50 11 -12 -13 -16 -17 -18 69 0
48 -49 50 -11 12 13 16 17 18 123 0
48 -49 50 -11 12 13 16 17 -18 88 0
48 -49 50 -11 12 13 16 -17 18 113 0
48 -49 50 -11 12 13 16 -17 -18 80 0
48 -49 50 -11 12 13 -16 17 18 118 0
48 -49 50 -11 12 13 -16 17 -18 132 0
48 -49 50 -11 12 13 -16 -17 18 122 0
48 -49 50 -11 12 13 -16 -17 -18 141 0
48 -49 50 -11 12 -13 16 17 18 66 0
48 -49 50 -11 12 -13 16 17 -18 148 0
48 -49 50 -11 12 -13 16 -17 18 60 0
48 -49 50 -11 12 -13 16 -17 -18 70 0
48 -49 50 -11 12 -13 -16 17 18 96 0
48 -49 50 -11 12 -13 -16 17 -18 120 0
48 -49 50 -11 12 -13 -16 -17 18 132 0
48 -49 50 -11 12 -13 -16 -17 -18 141 0
48 -49 50 -11 -12 13 16 17 18 78 0
48 -49 50 -11 -12 13 16 17 -18 111 0
48 -49 50 -11 -12 13 16 -17 18 72 0
48 -49 50 -11 -12 13 16 -17 -18 142 0
48 -49 50 -11 -12 13 -16 17 18 70 0
48 -49 50 -11 -12 13 -16 17 -18 132 0
48 -49 50 -11 -12 13 -16 -17 18 79 0
48 -49 50 -11 -12 13 -16 -17 -18 98 0
48 -49 50 -11 -12 -13 16 17 18 85 0
48 -49 50 -11 -12 -13 16 17 -18 114 0
48 -49 50 -11 -12 -13 16 -17 18 134 0
48 -49 50 -11 -12 -13 16 -17 -18 97 0
48 -49 50 -11 -12 -13 -16 17 18 128 0
48 -49 50 -11 -12 -13 -16 17 -18 119 0
48 -49 50 -11 -12 -13 -16 -17 18 79 0
48 -49 50 -11 -12 -13 -16 -17 -18 102 0
48 -49 -50 11 12 13 16 17 18 55 0
48 -49 -50 11 12 13 16 17 -18 80 0
48 -49 -50 11 12 13 16 -17 18 146 0
48 -49 -50 11 12 13 16 -17 -18 127 0
48 -49 -50 11 12 13 -16 17 18 83 0
48 -49 -50 11 12 13 -16 17 -18 130 0
48 -49 -50 11 12 13 -16 -17 18 145 0
48 -49 -50 11 12 13 -16 -17 -18 81 0
48 -49 -50 11 12 -13 16 17 18 99 0
48 -49 -50 11 12 -13 16 17 -18 133 0
48 -49 -50 11 12 -13 16 -17 18 70 0
48 -49 -50 11 12 -13 16 -17 -18 117 0
48 -49 -50 11 12 -13 -16 17 18 104 0
48 -49 -50 11 12 -13 -16 17 -18 73 0
48 -49 -50 11 12 -13 -16 -17 18 82 0
48 -49 -50 11 12 -13 -16 -17 -18 69 0
48 -49 -50 11 -12 13 16 17 18 121 0
48 -49 -50 11 -12 13 16 17 -18 101 0
48 -49 -50 11 -12 13 16 -17 18 127 0
48 -49 -50 11 -12 13 16 -17 -18 112 0
48 -49 -50 11 -12 13 -16 17 18 136 0
48 -49 -50 11 -12 13 -16 17 -18 128 0
48 -49 -50 11 -12 13 -16 -17 18 64 0
48 -49 -50 11 -12 13 -16 -17 -18 141 0
48 -49 -50 11 -12 -13 16 17 18 101 0
48 -49 -50 11 -12 -13 16 17 -18 121 0
48 -49 -50 11 -12 -13 16 -17 18 80 0
48 -49 -50 11 -12 -13 16 -17 -18 129 0
48 -49 -50 11 -12 -13 -16 17 18 124 0
48 -49 -50 11 -12 -13 -16 17 -18 120 0
48 -49 -50 11 -12 -13 -16 -17 18 102 0
48 -49 -50 11 -12 -13 -16 -17 -18 69 0
48 -49 -50 -11 12 13 16 17 18 123 0
48 -49 -50 -11 12 13 16 17 -18 65 0
48 -49 -50 -11 12 13 16 -17 18 78 0
48 -49 -50 -11 12 13 16 -17 -18 149 0
48 -49 -50 -11 12 13 -16 17 18 137 0
48 -49 -50 -11 12 13 -16 17 -18 132 0
48 -49 -50 -11 12 13 -16 -17 18 122 0
48 -49 -50 -11 12 13 -16 -17 -18 141 0
48 -49 -50 -11 12 -13 16 17 18 66 0
48 -49 -50 -11 12 -13 16 17 -18 82 0
48 -49 -50 -11 12 -13 16 -17 18 116 0
48 -49 -50 -11 12 -13 16 -17 -18 147 0
48 -49 -50 -11 12 -13 -16 17 18 96 0
48 -49 -50 -11 12 -13 -16 17 -18 120 0
48 -49 -50 -11 12 -13 -16 -17 18 132 0
48 -49 -50 -11 12 -13 -16 -17 -18 141 0
48 -49 -50 -11 -12 13 16 17 18 78 0
48 -49 -50 -11 -12 13 16 17 -18 52 0
48 -49 -50 -11 -12 13 16 -17 18 115 0
48 -49 -50 -11 -12 13 16 -17 -18 142 0
48 -49 -50 -11 -12 13 -16 17 18 70 0
48 -49 -50 -11 -12 13 -16 17 -18 132 0
48 -49 -50 -11 -12 13 -16 -17 18 79 0
48 -49 -50 -11 -12 13 -16 -17 -18 98 0
48 -49 -50 -11 -12 -13 16 17 18 97 0
48 -49 -50 -11 -12 -13 16 17 -18 137 0
48 -49 -50 -11 -12 -13 16 -17 18 138 0
48 -49 -50 -11 -12 -13 16 -17 -18 74 0
48 -49 -50 -11 -12 -13 -16 17 18 128 0
48 -49 -50 -11 -12 -13 -16 17 -18 119 0
48 -49 -50 -11 -12 -13 -16 -17 18 79 0
48 -49 -50 -11 -12 -13 -16 -17 -18 102 0
-48 49 50 11 12 13 16 17 18 55 0
-48 49 50 11 12 13 16 17 -18 80 0
-48 49 50 11 12 13 16 -17 18 146 0
-48 49 50 11 12 13 16 -17 -18 127 0
-48 49 50 11 12 13 -16 17 18 103 0
-48 49 50 11 12 13 -16 17 -18 125 0
-48 49 50 11 12 13 -16 -17 18 73 0
-48 49 50 11 12 13 -16 -17 -18 81 0
-48 49 50 11 12 -13 16 17 18 99 0
-48 49 50 11 12 -13 16 17 -18 133 0
-48 49 50 11 12 -13 16 -17 18 70 0
-48 49 50 11 12 -13 16 -17 -18 132 0
-48 49 50 11 12 -13 -16 17 18 120 0
-48 49 50 11 12 -13 -16 17 -18 89 0
-48 49 50 11 12 -13 -16 -17 18 71 0
-48 49 50 11 12 -13 -16 -17 -18 69 0
-48 49 50 11 -12 13 16 17 18 121 0
-48 49 50 11 -12 13 16 17 -18 101 0
-48 49 50 11 -12 13 16 -17 18 127 0
-48 49 50 11 -12 13 16 -17 -18 78 0
-48 49 50 11 -12 13 -16 17 18 136 0
-48 49 50 11 -12 13 -16 17 -18 60 0
-48 49 50 11 -12 13 -16 -17 18 64 0
-48 49 50 11 -12 13 -16 -17 -18 141 0
-48 49 50 11 -12 -13 16 17 18 101 0
-48 49 50 11 -12 -13 16 17 -18 121 0
-48 49 50 11 -12 -13 16 -17 18 80 0
-48 49 50 11 -12 -13 16 -17 -18 106 0
-48 49 50 11 -12 -13 -16 17 18 150 0
-48 49 50 11 -12 -13 -16 17 -18 120 0
-48 49 50 11 -12 -13 -16 -17 18 102 0
-48 49 50 11 -12 -13 -16 -17 -18 69 0
-48 49 50 -11 12 13 16 17 18 123 0
-48 49 50 -11 12 13 16 17 -18 65 0
-48 49 50 -11 12 13 16 -17 18 78 0
-48 49 50 -11 12 13 16 -17 -18 80 0
-48 49 50 -11 12 13 -16 17 18 114 0
-48 49 50 -11 12 13 -16 17 -18 132 0
-48 49 50 -11 12 13 -16 -17 18 122 0
-48 49 50 -11 12 13 -16 -17 -18 141 0
-48 49 50 -11 12 -13 16 17 18 66 0
-48 49 50 -11 12 -13 16 17 -18 82 0
-48 49 50 -11 12 -13 16 -17 18 128 0
-48 49 50 -11 12 -13 16 -17 -18 58 0
-48 49 50 -11 12 -13 -16 17 18 67 0
-48 49 50 -11 12 -13 -16 17 -18 120 0
-48 49 50 -11 12 -13 -16 -17 18 132 0
-48 49 50 -11 12 -13 -16 -17 -18 141 0
-48 49 50 -11 -12 13 16 17 18 78 0
-48 49 50 -11 -12 13 16 17 -18 146 0
-48 49 50 -11 -12 13 16 -17 18 133 0
-48 49 50 -11 -12 13 16 -17 -18 131 0
-48 49 50 -11 -12 13 -16 17 18 58 0
-48 49 50 -11 -12 13 -16 17 -18 132 0
-48 49 50 -11 -12 13 -16 -17 18 79 0
-48 49 50 -11 -12 13 -16 -17 -18 98 0
-48 49 50 -11 -12 -13 16 17 18 97 0
-48 49 50 -11 -12 -13 16 17 -18 118 0
-48 49 50 -11 -12 -13 16 -17 18 138 0
-48 49 50 -11 -12 -13 16 -17 -18 87 0
-48 49 50 -11 -12 -13 -16 17 18 128 0
-48 49 50 -11 -12 -13 -16 17 -18 119 0
-48 49 50 -11 -12 -13 -16 -17 18 79 0
-48 49 50 -11 -12 -13 -16 -17 -18 102 0
-48 49 -50 11 12 13 16 17 18 55 0
-48 49 -50 11 12 13 16 17 -18 80 0
-48 49 -50 11 12 13 16 -17 18 146 0
-48 49 -50 11 12 13 16 -17 -18 127 0
-48 49 -50 11 12 13 -16 17 18 103 0
-48 49 -50 11 12 13 -16 17 -18 94 0
-48 49 -50 11 12 13 -16 -17 18 89 0
-48 49 -50 11 12 13 -16 -17 -18 90 0
-48 49 -50 11 12 -13 16 17 18 99 0
-48 49 -50 11 12 -13 16 17 -18 133 0
-48 49 -50 11 12 -13 16 -17 18 70 0
-48 49 -50 11 12 -13 16 -17 -18 132 0
-48 49 -50 11 12 -13 -16 17 18 120 0
-48 49 -50 11 12 -13 -16 17 -18 73 0
-48 49 -50 11 12 -13 -16 -17 18 91 0
-48 49 -50 11 12 -13 -16 -17 -18 69 0
-48 49 -50 11 -12 13 16 17 18 121 0
-48 49 -50 11 -12 13 16 17 -18 101 0
-48 49 -50 11 -12 13 16 -17 18 127 0
-48 49 -50 11 -12 13 16 -17 -18 78 0
-48 49 -50 11 -12 13 -16 17 18 77 0
-48 49 -50 11 -12 13 -16 17 -18 116 0
-48 49 -50 11 -12 13 -16 -17 18 139 0
-48 49 -50 11 -12 13 -16 -17 -18 141 0
-48 49 -50 11 -12 -13 16 17 18 101 0
-48 49 -50 11 -12 -13 16 17 -18 121 0
-48 49 -50 11 -12 -13 16 -17 18 80 0
-48 49 -50 11 -12 -13 16 -17 -18 128 0
-48 49 -50 11 -12 -13 -16 17 18 96 0
-48 49 -50 11 -12 -13 -16 17 -18 104 0
-48 49 -50 11 -12 -13 -16 -17 18 102 0
-48 49 -50 11 -12 -13 -16 -17 -18 69 0
-48 49 -50 -11 12 13 16 17 18 123 0
-48 49 -50 -11 12 13 16 17 -18 65 0
-48 49 -50 -11 12 13 16 -17 18 78 0
-48 49 -50 -11 12 13 16 -17 -18 80 0
-48 49 -50 -11 12 13 -16 17 18 118 0
-48 49 -50 -11 12 13 -16 17 -18 59 0
-48 49 -50 -11 12 13 -16 -17 18 122 0
-48 49 -50 -11 12 13 -16 -17 -18 141 0
-48 49 -50 -11 12 -13 16 17 18 66 0
-48 49 -50 -11 12 -13 16 17 -18 82 0
-48 49 -50 -11 12 -13 16 -17 18 128 0
-48 49 -50 -11 12 -13 16 -17 -18 70 0
-48 49 -50 -11 12 -13 -16 17 18 151 0
-48 49 -50 -11 12 -13 -16 17 -18 104 0
-48 49 -50 -11 12 -13 -16 -17 18 132 0
-48 49 -50 -11 12 -13 -16 -17 -18 141 0
-48 49 -50 -11 -12 13 16 17 18 78 0
-48 49 -50 -11 -12 13 16 17 -18 146 0
-48 49 -50 -11 -12 13 16 -17 18 133 0
-48 49 -50 -11 -12 13 16 -17 -18 142 0
-48 49 -50 -11 -12 13 -16 17 18 147 0
-48 49 -50 -11 -12 13 -16 17 -18 140 0
-48 49 -50 -11 -12 13 -16 -17 18 79 0
-48 49 -50 -11 -12 13 -16 -17 -18 98 0
-48 49 -50 -11 -12 -13 16 17 18 97 0
-48 49 -50 -11 -12 -13 16 17 -18 118 0
-48 49 -50 -11 -12 -13 16 -17 18 134 0
-48 49 -50 -11 -12 -13 16 -17 -18 68 0
-48 49 -50 -11 -12 -13 -16 17 18 60 0
-48 49 -50 -11 -12 -13 -16 17 -18 119 0
-48 49 -50 -11 -12 -13 -16 -17 18 79 0
-48 49 -50 -11 -12 -13 -16 -17 -18 102 0
-48 -49 50 11 12 13 16 17 18 55 0
-48 -49 50 11 12 13 16 17 -18 80 0
-48 -49 50 11 12 13 16 -17 18 146 0
-48 -49 50 11 12 13 16 -17 -18 127 0
-48 -49 50 11 12 13 -16 17 18 103 0
-48 -49 50 11 12 13 -16 17 -18 93 0
-48 -49 50 11 12 13 -16 -17 18 73 0
-48 -49 50 11 12 13 -16 -17 -18 90 0
-48 -49 50 11 12 -13 16 17 18 99 0
-48 -49 50 11 12 -13 16 17 -18 133 0
-48 -49 50 11 12 -13 16 -17 18 70 0
-48 -49 50 11 12 -13 16 -17 -18 132 0
-48 -49 50 11 12 -13 -16 17 18 120 0
-48 -49 50 11 12 -13 -16 17 -18 145 0
-48 -49 50 11 12 -13 -16 -17 18 91 0
-48 -49 50 11 12 -13 -16 -17 -18 143 0
-48 -49 50 11 -12 13 16 17 18 121 0
-48 -49 50 11 -12 13 16 17 -18 101 0
-48 -49 50 11 -12 13 16 -17 18 127 0
-48 -49 50 11 -12 13 16 -17 -18 78 0
-48 -49 50 11 -12 13 -16 17 18 77 0
-48 -49 50 11 -12 13 -16 17 -18 128 0
-48 -49 50 11 -12 13 -16 -17 18 105 0
-48 -49 50 11 -12 13 -16 -17 -18 141 0
-48 -49 50 11 -12 -13 16 17 18 101 0
-48 -49 50 11 -12 -13 16 17 -18 121 0
-48 -49 50 11 -12 -13 16 -17 18 80 0
-48 -49 50 11 -12 -13 16 -17 -18 128 0
-48 -49 50 11 -12 -13 -16 17 18 96 0
-48 -49 50 11 -12 -13 -16 17 -18 120 0
-48 -49 50 11 -12 -13 -16 -17 18 126 0
-48 -49 50 11 -12 -13 -16 -17 -18 143 0
-48 -49 50 -11 12 13 16 17 18 123 0
-48 -49 50 -11 12 13 16 17 -18 65 0
-48 -49 50 -11 12 13 16 -17 18 78 0
-48 -49 50 -11 12 13 16 -17 -18 80 0
-48 -49 50 -11 12 13 -16 17 18 118 0
-48 -49 50 -11 12 13 -16 17 -18 117 0
-48 -49 50 -11 12 13 -16 -17 18 100 0
-48 -49 50 -11 12 13 -16 -17 -18 141 0
-48 -49 50 -11 12 -13 16 17 18 66 0
-48 -49 50 -11 12 -13 16 17 -18 82 0
-48 -49 50 -11 12 -13 16 -17 18 128 0
-48 -49 50 -11 12 -13 16 -17 -18 70 0
-48 -49 50 -11 12 -13 -16 17 18 96 0
-48 -49 50 -11 12 -13 -16 17 -18 120 0
-48 -49 50 -11 12 -13 -16 -17 18 140 0
-48 -49 50 -11 12 -13 -16 -17 -18 141 0
-48 -49 50 -11 -12 13 16 17 18 78 0
-48 -49 50 -11 -12 13 16 17 -18 146 0
-48 -49 50 -11 -12 13 16 -17 18 133 0
-48 -49 50 -11 -12 13 16 -17 -18 142 0
-48 -49 50 -11 -12 13 -16 17 18 70 0
-48 -49 50 -11 -12 13 -16 17 -18 140 0
-48 -49 50 -11 -12 13 -16 -17 18 92 0
-48 -49 50 -11 -12 13 -16 -17 -18 98 0
-48 -49 50 -11 -12 -13 16 17 18 97 0
-48 -49 50 -11 -12 -13 16 17 -18 118 0
-48 -49 50 -11 -12 -13 16 -17 18 134 0
-48 -49 50 -11 -12 -13 16 -17 -18 97 0
-48 -49 50 -11 -12 -13 -16 17 18 116 0
-48 -49 50 -11 -12 -13 -16 17 -18 62 0
-48 -49 50 -11 -12 -13 -16 -17 18 92 0
-48 -49 50 -11 -12 -13 -16 -17 -18 102 0
-48 -49 -50 11 12 13 16 17 18 55 0
-48 -49 -50 11 12 13 16 17 -18 80 0
-48 -49 -50 11 12 13 16 -17 18 146 0
-48 -49 -50 11 12 13 16 -17 -18 127 0
-48 -49 -50 11 12 13 -16 17 18 103 0
-48 -49 -50 11 12 13 -16 17 -18 93 0
-48 -49 -50 11 12 13 -16 -17 18 145 0
-48 -49 -50 11 12 13 -16 -17 -18 75 0
-48 -49 -50 11 12 -13 16 17 18 99 0
-48 -49 -50 11 12 -13 16 17 -18 133 0
-48 -49 -50 11 12 -13 16 -17 18 70 0
-48 -49 -50 11 12 -13 16 -17 -18 132 0
-48 -49 -50 11 12 -13 -16 17 18 120 0
-48 -49 -50 11 12 -13 -16 17 -18 145 0
-48 -49 -50 11 12 -13 -16 -17 18 82 0
-48 -49 -50 11 12 -13 -16 -17 -18 95 0
-48 -49 -50 11 -12 13 16 17 18 121 0
-48 -49 -50 11 -12 13 16 17 -18 101 0
-48 -49 -50 11 -12 13 16 -17 18 127 0
-48 -49 -50 11 -12 13 16 -17 -18 78 0
-48 -49 -50 11 -12 13 -16 17 18 77 0
-48 -49 -50 11 -12 13 -16 17 -18 128 0
-48 -49 -50 11 -12 13 -16 -17 18 64 0
-48 -49 -50 11 -12 13 -16 -17 -18 76 0
-48 -49 -50 11 -12 -13 16 17 18 101 0
-48 -49 -50 11 -12 -13 16 17 -18 121 0
-48 -49 -50 11 -12 -13 16 -17 18 80 0
-48 -49 -50 11 -12 -13 16 -17 -18 128 0
-48 -49 -50 11 -12 -13 -16 17 18 96 0
-48 -49 -50 11 -12 -13 -16 17 -18 120 0
-48 -49 -50 11 -12 -13 -16 -17 18 102 0
-48 -49 -50 11 -12 -13 -16 -17 -18 95 0
-48 -49 -50 -11 12 13 16 17 18 123 0
-48 -49 -50 -11 12 13 16 17 -18 65 0
-48 -49 -50 -11 12 13 16 -17 18 78 0
-48 -49 -50 -11 12 13 16 -17 -18 80 0
-48 -49 -50 -11 12 13 -16 17 18 118 0
-48 -49 -50 -11 12 13 -16 17 -18 132 0
-48 -49 -50 -11 12 13 -16 -17 18 122 0
-48 -49 -50 -11 12 13 -16 -17 -18 76 0
-48 -49 -50 -11 12 -13 16 17 18 66 0
-48 -49 -50 -11 12 -13 16 17 -18 82 0
-48 -49 -50 -11 12 -13 16 -17 18 128 0
-48 -49 -50 -11 12 -13 16 -17 -18 70 0
-48 -49 -50 -11 12 -13 -16 17 18 96 0
-48 -49 -50 -11 12 -13 -16 17 -18 120 0
-48 -49 -50 -11 12 -13 -16 -17 18 140 0
-48 -49 -50 -11 12 -13 -16 -17 -18 76 0
-48 -49 -50 -11 -12 13 16 17 18 78 0
-48 -49 -50 -11 -12 13 16 17 -18 146 0
-48 -49 -50 -11 -12 13 16 -17 18 133 0
-48 -49 -50 -11 -12 13 16 -17 -18 142 0
-48 -49 -50 -11 -12 13 -16 17 18 70 0
-48 -49 -50 -11 -12 13 -16 17 -18 132 0
-48 -49 -50 -11 -12 13 -16 -17 18 92 0
-48 -49 -50 -11 -12 13 -16 -17 -18 144 0
-48 -49 -50 -11 -12 -13 16 17 18 97 0
-48 -49 -50 -11 -12 -13 16 17 -18 118 0
-48 -49 -50 -11 -12 -13 16 -17 18 134 0
-48 -49 -50 -11 -12 -13 16 -17 -18 97 0
-48 -49 -50 -11 -12 -13 -16 17 18 128 0
-48 -49 -50 -11 -12 -13 -16 17 -18 63 0
-48 -49 -50 -11 -12 -13 -16 -17 18 92 0
-48 -49 -50 -11 -12 -13 -16 -17 -18 126 0
